0 0 0 0
0 1 0 0
0 2 0 0
0 3 0 14
0 4 0 21
0 5 0 14
0 6 0 10
0 7 0 30
0 8 0 71
0 9 0 20
0 10 0 59
0 11 0 21
0 12 0 25
0 13 0 6
0 14 0 29
0 15 0 39
0 16 0 25
0 17 0 43
0 18 0 58
0 19 0 53
0 20 0 15
0 21 0 85
0 22 0 166
0 23 0 92
0 24 0 43
0 25 0 139
0 26 0 62
0 27 0 26
0 28 0 62
0 29 0 32
0 30 0 106
0 31 0 71
0 32 0 91
0 33 0 90
0 34 0 53
0 35 0 104
0 36 0 53
0 37 0 124
0 38 0 139
0 39 0 66
0 40 0 73
0 41 0 144
0 42 0 59
0 43 0 143
0 44 0 91
0 45 0 80
0 46 0 101
0 47 0 77
0 48 0 116
0 49 0 68
0 50 0 49
0 51 0 152
0 52 0 40
0 53 0 80
0 54 0 73
0 55 0 90
0 56 0 77
0 57 0 50
0 58 0 114
0 59 0 116
0 60 0 106
0 61 0 78
0 62 0 181
0 63 0 70
0 64 0 121
0 65 0 134
0 66 0 69
0 67 0 97
0 68 0 160
0 69 0 97
0 70 0 142
0 71 0 137
0 72 0 121
0 73 0 171
0 74 0 142
0 75 0 143
0 76 0 127
0 77 0 130
0 78 0 188
0 79 0 172
0 80 0 109
0 81 0 85
0 82 0 164
0 83 0 155
0 84 0 100
0 85 0 97
0 86 0 188
0 87 0 152
0 88 0 144
0 89 0 157
0 90 0 157
0 91 0 164
0 92 0 151
0 93 0 194
0 94 0 157
0 95 0 194
0 96 0 176
0 97 0 164
0 98 0 100
0 99 0 207
0 100 0 175
0 101 0 177
0 102 0 180
0 103 0 199
0 104 0 181
0 105 0 200
0 106 0 134
0 107 0 210
0 108 0 177
0 109 0 209
0 110 0 188
0 111 0 189
0 112 0 217
0 113 0 214
0 114 0 209
0 115 0 214
0 116 0 199
0 117 0 224
0 118 0 220
0 119 0 217
0 120 0 225
0 121 0 230
